
  32    4
  10   10   10   10

   0   0   0   0   0   6 2 4 5 9 13 14 
   8  10  10  10  10   3 31 19 3 
   8  10  10  10  10   3 30 24 6 
   6  10  10  10  10   5 31 30 19 18 8 
   7  10  10  10  10   5 31 30 19 18 8 
   7  10  10  10  10   1 7 
   2  10  10  10  10   2 18 8 
   2  10  10  10  10   3 12 11 10 
   7  10  10  10  10   3 18 12 11 
  10  10  10  10  10   2 23 15 
   9  10  10  10  10   3 27 23 17 
   2  10  10  10  10   2 27 16 
   8  10  10  10  10   2 27 16 
   5  10  10  10  10   2 19 17 
   7  10  10  10  10   1 16 
  10  10  10  10  10   1 17 
  10  10  10  10  10   1 20 
   5  10  10  10  10   1 20 
   6  10  10  10  10   1 20 
   4  10  10  10  10   1 21 
   4  10  10  10  10   1 22 
   9  10  10  10  10   2 29 25 
   8  10  10  10  10   2 29 25 
   7  10  10  10  10   1 25 
   9  10  10  10  10   1 26 
   7  10  10  10  10   1 28 
   2  10  10  10  10   1 28 
   4  10  10  10  10   1 32
   5  10  10  10  10   1 32
   7  10  10  10  10   1 32
   5  10  10  10  10   1 32
   0   0   0   0   0   0 
